c A SAT instance generated from a 3-CNF formula that had 33 clauses and 11 variables
p cnf 11 33
-2 -9 -5 0
7 -4 10 0
8 -2 11 0
-6 -7 -10 0
2 -5 -11 0
-1 -10 -5 0
10 -3 7 0
-6 -7 4 0
-1 4 -5 0
-7 -11 -6 0
7 10 5 0
8 -10 -2 0
11 9 1 0
-3 -8 1 0
8 7 4 0
3 1 11 0
-10 2 4 0
5 10 4 0
-4 -2 8 0
-3 9 -8 0
7 -6 -8 0
-5 4 9 0
6 9 3 0
-2 1 7 0
4 -10 -3 0
9 -3 2 0
-1 -2 -3 0
-8 2 5 0
-1 11 5 0
-8 2 -3 0
11 -7 4 0
4 1 9 0
2 5 -7 0
